p cnf 518 1131
17 18 19 0
-19 -17 0
-19 -18 0
-19 20 21 0
-21 19 0
-21 -20 0
22 -21 23 0
-23 -22 0
-23 21 0
24 -23 25 0
-25 -24 0
-25 23 0
-25 16 26 0
-26 25 0
-26 -16 0
27 -26 28 0
-28 -27 0
-28 26 0
15 -28 29 0
-29 -15 0
-29 28 0
-29 14 30 0
-30 29 0
-30 -14 0
-30 13 31 0
-31 30 0
-31 -13 0
-31 32 33 0
-33 31 0
-33 -32 0
12 -33 34 0
-34 -12 0
-34 33 0
-34 35 36 0
-36 34 0
-36 -35 0
37 -36 38 0
-38 -37 0
-38 36 0
-38 11 39 0
-39 38 0
-39 -11 0
10 -39 40 0
-40 -10 0
-40 39 0
41 -40 42 0
-42 -41 0
-42 40 0
-42 43 44 0
-44 42 0
-44 -43 0
9 -44 45 0
-45 -9 0
-45 44 0
46 -45 47 0
-47 -46 0
-47 45 0
-47 48 49 0
-49 47 0
-49 -48 0
-49 8 50 0
-50 49 0
-50 -8 0
-50 7 51 0
-51 50 0
-51 -7 0
-51 6 52 0
-52 51 0
-52 -6 0
-52 5 53 0
-53 52 0
-53 -5 0
4 -53 54 0
-54 -4 0
-54 53 0
-54 55 56 0
-56 54 0
-56 -55 0
57 -56 58 0
-58 -57 0
-58 56 0
59 -58 60 0
-60 -59 0
-60 58 0
-60 3 61 0
-61 60 0
-61 -3 0
62 -61 63 0
-63 -62 0
-63 61 0
-63 2 64 0
-64 63 0
-64 -2 0
-64 1 65 0
-65 64 0
-65 -1 0
2 -62 66 0
-66 -2 0
-66 62 0
1 -66 67 0
-67 -1 0
-67 66 0
57 59 69 0
-69 -57 0
-69 -59 0
-69 3 70 0
-70 69 0
-70 -3 0
-70 -68 71 0
-71 70 0
-71 68 0
70 68 72 0
-72 -70 0
-72 -68 0
72 71 73 0
-73 -72 0
-73 -71 0
3 -69 75 0
-75 -3 0
-75 69 0
-74 -75 76 0
-76 74 0
-76 75 0
74 75 77 0
-77 -74 0
-77 -75 0
77 76 78 0
-78 -77 0
-78 -76 0
-70 -79 80 0
-80 70 0
-80 79 0
70 79 81 0
-81 -70 0
-81 -79 0
81 80 82 0
-82 -81 0
-82 -80 0
9 46 83 0
-83 -9 0
-83 -46 0
48 -83 84 0
-84 -48 0
-84 83 0
85 84 86 0
-86 -85 0
-86 -84 0
-84 -85 87 0
-87 84 0
-87 85 0
86 87 88 0
-88 -86 0
-88 -87 0
-84 -89 90 0
-90 84 0
-90 89 0
84 89 91 0
-91 -84 0
-91 -89 0
90 91 92 0
-92 -90 0
-92 -91 0
46 9 94 0
-94 -46 0
-94 -9 0
-94 48 95 0
-95 94 0
-95 -48 0
95 93 96 0
-96 -95 0
-96 -93 0
-95 -93 97 0
-97 95 0
-97 93 0
97 96 98 0
-98 -97 0
-98 -96 0
59 57 100 0
-100 -59 0
-100 -57 0
3 -100 101 0
-101 -3 0
-101 100 0
-101 -99 102 0
-102 101 0
-102 99 0
99 101 103 0
-103 -99 0
-103 -101 0
102 103 104 0
-104 -102 0
-104 -103 0
95 105 106 0
-106 -95 0
-106 -105 0
-105 -95 107 0
-107 105 0
-107 95 0
107 106 108 0
-108 -107 0
-108 -106 0
109 95 110 0
-110 -109 0
-110 -95 0
-95 -109 111 0
-111 95 0
-111 109 0
111 110 112 0
-112 -111 0
-112 -110 0
-95 -113 114 0
-114 95 0
-114 113 0
113 95 115 0
-115 -113 0
-115 -95 0
115 114 116 0
-116 -115 0
-116 -114 0
-116 -112 117 0
-117 116 0
-117 112 0
-108 -117 118 0
-118 108 0
-118 117 0
7 8 120 0
-120 -7 0
-120 -8 0
6 -120 121 0
-121 -6 0
-121 120 0
-121 -119 122 0
-122 121 0
-122 119 0
121 119 123 0
-123 -121 0
-123 -119 0
122 123 124 0
-124 -122 0
-124 -123 0
-124 -118 125 0
-125 124 0
-125 118 0
126 121 127 0
-127 -126 0
-127 -121 0
-121 -126 128 0
-128 121 0
-128 126 0
127 128 129 0
-129 -127 0
-129 -128 0
-129 -125 130 0
-130 129 0
-130 125 0
-131 -121 132 0
-132 131 0
-132 121 0
131 121 133 0
-133 -131 0
-133 -121 0
133 132 134 0
-134 -133 0
-134 -132 0
-130 -134 135 0
-135 130 0
-135 134 0
-104 -135 136 0
-136 104 0
-136 135 0
70 137 138 0
-138 -70 0
-138 -137 0
-70 -137 139 0
-139 70 0
-139 137 0
138 139 140 0
-140 -138 0
-140 -139 0
-140 -136 141 0
-141 140 0
-141 136 0
-142 -75 143 0
-143 142 0
-143 75 0
75 142 144 0
-144 -75 0
-144 -142 0
144 143 145 0
-145 -144 0
-145 -143 0
-145 -141 146 0
-146 145 0
-146 141 0
8 7 147 0
-147 -8 0
-147 -7 0
-147 6 148 0
-148 147 0
-148 -6 0
-148 -149 150 0
-150 148 0
-150 149 0
149 148 151 0
-151 -149 0
-151 -148 0
151 150 152 0
-152 -151 0
-152 -150 0
-146 -152 153 0
-153 146 0
-153 152 0
121 154 155 0
-155 -121 0
-155 -154 0
-121 -154 156 0
-156 121 0
-156 154 0
156 155 157 0
-157 -156 0
-157 -155 0
-157 -153 158 0
-158 157 0
-158 153 0
-120 6 160 0
-160 120 0
-160 -6 0
160 159 161 0
-161 -160 0
-161 -159 0
-159 -160 162 0
-162 159 0
-162 160 0
162 161 163 0
-163 -162 0
-163 -161 0
-158 -163 164 0
-164 158 0
-164 163 0
-164 -98 165 0
-165 164 0
-165 98 0
166 84 167 0
-167 -166 0
-167 -84 0
-84 -166 168 0
-168 84 0
-168 166 0
168 167 169 0
-169 -168 0
-169 -167 0
-165 -169 170 0
-170 165 0
-170 169 0
-83 48 172 0
-172 83 0
-172 -48 0
-171 -172 173 0
-173 171 0
-173 172 0
172 171 174 0
-174 -172 0
-174 -171 0
173 174 175 0
-175 -173 0
-175 -174 0
-170 -175 176 0
-176 170 0
-176 175 0
-177 -172 178 0
-178 177 0
-178 172 0
172 177 179 0
-179 -172 0
-179 -177 0
178 179 180 0
-180 -178 0
-180 -179 0
-176 -180 181 0
-181 176 0
-181 180 0
-181 -92 182 0
-182 181 0
-182 92 0
-182 -88 183 0
-183 182 0
-183 88 0
-82 -183 184 0
-184 82 0
-184 183 0
-100 3 185 0
-185 100 0
-185 -3 0
-186 -185 187 0
-187 186 0
-187 185 0
186 185 188 0
-188 -186 0
-188 -185 0
188 187 189 0
-189 -188 0
-189 -187 0
-184 -189 190 0
-190 184 0
-190 189 0
-190 -78 191 0
-191 190 0
-191 78 0
6 -147 193 0
-193 -6 0
-193 147 0
192 193 194 0
-194 -192 0
-194 -193 0
-192 -193 195 0
-195 192 0
-195 193 0
195 194 196 0
-196 -195 0
-196 -194 0
-196 -191 197 0
-197 196 0
-197 191 0
-198 -193 199 0
-199 198 0
-199 193 0
198 193 200 0
-200 -198 0
-200 -193 0
199 200 201 0
-201 -199 0
-201 -200 0
-201 -197 202 0
-202 201 0
-202 197 0
-203 -160 204 0
-204 203 0
-204 160 0
203 160 205 0
-205 -203 0
-205 -160 0
204 205 206 0
-206 -204 0
-206 -205 0
-206 -202 207 0
-207 206 0
-207 202 0
-207 -73 208 0
-208 207 0
-208 73 0
-209 -101 210 0
-210 209 0
-210 101 0
101 209 211 0
-211 -101 0
-211 -209 0
211 210 212 0
-212 -211 0
-212 -210 0
-208 -212 213 0
-213 208 0
-213 212 0
101 214 215 0
-215 -101 0
-215 -214 0
-214 -101 216 0
-216 214 0
-216 101 0
215 216 217 0
-217 -215 0
-217 -216 0
-217 -213 218 0
-218 217 0
-218 213 0
220 -221 222 0
-222 -220 0
-222 221 0
222 -219 223 0
-223 -222 0
-223 219 0
-224 225 226 0
-226 224 0
-226 -225 0
226 -227 228 0
-228 -226 0
-228 227 0
230 -229 231 0
-231 -230 0
-231 229 0
231 -232 233 0
-233 -231 0
-233 232 0
-236 235 237 0
-237 236 0
-237 -235 0
-234 237 238 0
-238 234 0
-238 -237 0
239 -240 241 0
-241 -239 0
-241 240 0
-242 241 243 0
-243 242 0
-243 -241 0
246 -245 247 0
-247 -246 0
-247 245 0
247 -244 248 0
-248 -247 0
-248 244 0
-249 250 251 0
-251 249 0
-251 -250 0
-252 251 253 0
-253 252 0
-253 -251 0
-255 256 257 0
-257 255 0
-257 -256 0
257 -254 258 0
-258 -257 0
-258 254 0
-261 260 262 0
-262 261 0
-262 -260 0
262 -259 263 0
-263 -262 0
-263 259 0
266 -265 267 0
-267 -266 0
-267 265 0
267 -264 268 0
-268 -267 0
-268 264 0
270 -271 272 0
-272 -270 0
-272 271 0
272 -269 273 0
-273 -272 0
-273 269 0
-275 276 277 0
-277 275 0
-277 -276 0
277 -274 278 0
-278 -277 0
-278 274 0
280 -279 281 0
-281 -280 0
-281 279 0
-282 281 283 0
-283 282 0
-283 -281 0
284 -285 286 0
-286 -284 0
-286 285 0
-287 286 288 0
-288 287 0
-288 -286 0
-291 290 292 0
-292 291 0
-292 -290 0
292 -289 293 0
-293 -292 0
-293 289 0
-295 296 297 0
-297 295 0
-297 -296 0
297 -294 298 0
-298 -297 0
-298 294 0
298 293 299 0
-299 -298 0
-299 -293 0
-301 302 303 0
-303 301 0
-303 -302 0
303 -300 304 0
-304 -303 0
-304 300 0
-299 304 305 0
-305 299 0
-305 -304 0
-305 288 306 0
-306 305 0
-306 -288 0
-306 283 307 0
-307 306 0
-307 -283 0
-307 278 308 0
-308 307 0
-308 -278 0
-308 273 309 0
-309 308 0
-309 -273 0
-311 310 312 0
-312 311 0
-312 -310 0
-313 312 314 0
-314 313 0
-314 -312 0
-309 314 315 0
-315 309 0
-315 -314 0
-317 316 318 0
-318 317 0
-318 -316 0
-319 318 320 0
-320 319 0
-320 -318 0
320 -315 321 0
-321 -320 0
-321 315 0
-323 322 324 0
-324 323 0
-324 -322 0
-325 324 326 0
-326 325 0
-326 -324 0
326 -321 327 0
-327 -326 0
-327 321 0
328 -329 330 0
-330 -328 0
-330 329 0
330 -331 332 0
-332 -330 0
-332 331 0
-327 332 333 0
-333 327 0
-333 -332 0
-333 268 334 0
-334 333 0
-334 -268 0
337 -336 338 0
-338 -337 0
-338 336 0
338 -335 339 0
-339 -338 0
-339 335 0
-334 339 340 0
-340 334 0
-340 -339 0
-340 263 341 0
-341 340 0
-341 -263 0
-342 343 344 0
-344 342 0
-344 -343 0
-345 344 346 0
-346 345 0
-346 -344 0
-341 346 347 0
-347 341 0
-347 -346 0
-347 258 348 0
-348 347 0
-348 -258 0
-348 253 349 0
-349 348 0
-349 -253 0
-349 248 350 0
-350 349 0
-350 -248 0
243 -350 351 0
-351 -243 0
-351 350 0
353 -354 355 0
-355 -353 0
-355 354 0
-352 355 356 0
-356 352 0
-356 -355 0
356 -351 357 0
-357 -356 0
-357 351 0
238 -357 358 0
-358 -238 0
-358 357 0
-358 233 359 0
-359 358 0
-359 -233 0
360 -361 362 0
-362 -360 0
-362 361 0
362 -363 364 0
-364 -362 0
-364 363 0
364 -359 365 0
-365 -364 0
-365 359 0
367 -366 368 0
-368 -367 0
-368 366 0
-369 368 370 0
-370 369 0
-370 -368 0
-365 370 371 0
-371 365 0
-371 -370 0
228 -371 372 0
-372 -228 0
-372 371 0
223 -372 373 0
-373 -223 0
-373 372 0
376 -375 377 0
-377 -376 0
-377 375 0
377 -374 378 0
-378 -377 0
-378 374 0
378 -373 379 0
-379 -378 0
-379 373 0
289 294 380 0
-380 -289 0
-380 -294 0
300 -380 381 0
-381 -300 0
-381 380 0
-381 287 382 0
-382 381 0
-382 -287 0
282 -382 383 0
-383 -282 0
-383 382 0
274 -383 384 0
-384 -274 0
-384 383 0
-384 269 385 0
-385 384 0
-385 -269 0
-385 313 386 0
-386 385 0
-386 -313 0
319 -386 387 0
-387 -319 0
-387 386 0
325 -387 388 0
-388 -325 0
-388 387 0
331 -388 389 0
-389 -331 0
-389 388 0
-389 264 390 0
-390 389 0
-390 -264 0
-390 335 391 0
-391 390 0
-391 -335 0
259 -391 392 0
-392 -259 0
-392 391 0
-392 345 393 0
-393 392 0
-393 -345 0
254 -393 394 0
-394 -254 0
-394 393 0
252 -394 395 0
-395 -252 0
-395 394 0
-395 244 396 0
-396 395 0
-396 -244 0
242 -396 397 0
-397 -242 0
-397 396 0
-397 352 398 0
-398 397 0
-398 -352 0
234 -398 399 0
-399 -234 0
-399 398 0
-399 232 400 0
-400 399 0
-400 -232 0
-400 363 401 0
-401 400 0
-401 -363 0
369 -401 402 0
-402 -369 0
-402 401 0
227 -402 403 0
-403 -227 0
-403 402 0
219 -403 404 0
-404 -219 0
-404 403 0
374 -404 405 0
-405 -374 0
-405 404 0
-379 405 406 0
-406 379 0
-406 -405 0
-218 -406 407 0
-407 218 0
-407 406 0
375 70 408 0
-408 -375 0
-408 -70 0
-70 -375 409 0
-409 70 0
-409 375 0
409 408 410 0
-410 -409 0
-410 -408 0
229 160 411 0
-411 -229 0
-411 -160 0
-160 -229 412 0
-412 160 0
-412 229 0
412 411 413 0
-413 -412 0
-413 -411 0
245 172 414 0
-414 -245 0
-414 -172 0
-172 -245 415 0
-415 172 0
-415 245 0
415 414 416 0
-416 -415 0
-416 -414 0
48 -94 417 0
-417 -48 0
-417 94 0
261 417 418 0
-418 -261 0
-418 -417 0
-261 -417 419 0
-419 261 0
-419 417 0
419 418 420 0
-420 -419 0
-420 -418 0
-84 -336 421 0
-421 84 0
-421 336 0
336 84 422 0
-422 -336 0
-422 -84 0
422 421 423 0
-423 -422 0
-423 -421 0
148 265 424 0
-424 -148 0
-424 -265 0
-148 -265 425 0
-425 148 0
-425 265 0
424 425 426 0
-426 -424 0
-426 -425 0
-323 -160 427 0
-427 323 0
-427 160 0
323 160 428 0
-428 -323 0
-428 -160 0
427 428 429 0
-429 -427 0
-429 -428 0
-317 -75 430 0
-430 317 0
-430 75 0
317 75 431 0
-431 -317 0
-431 -75 0
430 431 432 0
-432 -430 0
-432 -431 0
-311 -101 433 0
-433 311 0
-433 101 0
101 311 434 0
-434 -101 0
-434 -311 0
433 434 435 0
-435 -433 0
-435 -434 0
-275 -148 436 0
-436 275 0
-436 148 0
275 148 437 0
-437 -275 0
-437 -148 0
437 436 438 0
-438 -437 0
-438 -436 0
-160 -279 439 0
-439 160 0
-439 279 0
160 279 440 0
-440 -160 0
-440 -279 0
440 439 441 0
-441 -440 0
-441 -439 0
285 160 442 0
-442 -285 0
-442 -160 0
-285 -160 443 0
-443 285 0
-443 160 0
442 443 444 0
-444 -442 0
-444 -443 0
295 95 445 0
-445 -295 0
-445 -95 0
-295 -95 446 0
-446 295 0
-446 95 0
446 445 447 0
-447 -446 0
-447 -445 0
417 291 448 0
-448 -417 0
-448 -291 0
-291 -417 449 0
-449 291 0
-449 417 0
448 449 450 0
-450 -448 0
-450 -449 0
-450 -447 451 0
-451 450 0
-451 447 0
301 417 452 0
-452 -301 0
-452 -417 0
-301 -417 453 0
-453 301 0
-453 417 0
452 453 454 0
-454 -452 0
-454 -453 0
-454 -451 455 0
-455 454 0
-455 451 0
-455 -444 456 0
-456 455 0
-456 444 0
-456 -441 457 0
-457 456 0
-457 441 0
-438 -457 458 0
-458 438 0
-458 457 0
-271 -75 459 0
-459 271 0
-459 75 0
75 271 460 0
-460 -75 0
-460 -271 0
459 460 461 0
-461 -459 0
-461 -460 0
-458 -461 462 0
-462 458 0
-462 461 0
-435 -462 463 0
-463 435 0
-463 462 0
-463 -432 464 0
-464 463 0
-464 432 0
-429 -464 465 0
-465 429 0
-465 464 0
329 193 466 0
-466 -329 0
-466 -193 0
-193 -329 467 0
-467 193 0
-467 329 0
466 467 468 0
-468 -466 0
-468 -467 0
-468 -465 469 0
-469 468 0
-469 465 0
-469 -426 470 0
-470 469 0
-470 426 0
-470 -423 471 0
-471 470 0
-471 423 0
-471 -420 472 0
-472 471 0
-472 420 0
-342 -95 473 0
-473 342 0
-473 95 0
95 342 474 0
-474 -95 0
-474 -342 0
474 473 475 0
-475 -474 0
-475 -473 0
-475 -472 476 0
-476 475 0
-476 472 0
255 84 477 0
-477 -255 0
-477 -84 0
-255 -84 478 0
-478 255 0
-478 84 0
478 477 479 0
-479 -478 0
-479 -477 0
-476 -479 480 0
-480 476 0
-480 479 0
-84 -249 481 0
-481 84 0
-481 249 0
84 249 482 0
-482 -84 0
-482 -249 0
482 481 483 0
-483 -482 0
-483 -481 0
-483 -480 484 0
-484 483 0
-484 480 0
-416 -484 485 0
-485 416 0
-485 484 0
70 240 486 0
-486 -70 0
-486 -240 0
-240 -70 487 0
-487 240 0
-487 70 0
487 486 488 0
-488 -487 0
-488 -486 0
-488 -485 489 0
-489 488 0
-489 485 0
-354 -185 490 0
-490 354 0
-490 185 0
185 354 491 0
-491 -185 0
-491 -354 0
491 490 492 0
-492 -491 0
-492 -490 0
-492 -489 493 0
-493 492 0
-493 489 0
236 101 494 0
-494 -236 0
-494 -101 0
-236 -101 495 0
-495 236 0
-495 101 0
494 495 496 0
-496 -494 0
-496 -495 0
-493 -496 497 0
-497 493 0
-497 496 0
-497 -413 498 0
-498 497 0
-498 413 0
-361 -148 499 0
-499 361 0
-499 148 0
148 361 500 0
-500 -148 0
-500 -361 0
500 499 501 0
-501 -500 0
-501 -499 0
-501 -498 502 0
-502 501 0
-502 498 0
366 193 503 0
-503 -366 0
-503 -193 0
-193 -366 504 0
-504 193 0
-504 366 0
503 504 505 0
-505 -503 0
-505 -504 0
-502 -505 506 0
-506 502 0
-506 505 0
75 224 507 0
-507 -75 0
-507 -224 0
-75 -224 508 0
-508 75 0
-508 224 0
507 508 509 0
-509 -507 0
-509 -508 0
-506 -509 510 0
-510 506 0
-510 509 0
-70 -221 511 0
-511 70 0
-511 221 0
70 221 512 0
-512 -70 0
-512 -221 0
511 512 513 0
-513 -511 0
-513 -512 0
-513 -510 514 0
-514 513 0
-514 510 0
-514 -410 515 0
-515 514 0
-515 410 0
-407 -515 516 0
-516 407 0
-516 515 0
-516 -67 517 0
-517 516 0
-517 67 0
-517 65 518 0
-518 517 0
-518 -65 0
